p cnf 493 1693
-301 22 23 24 25 26 27 29 0 
-292 22 23 24 25 26 27 29 0 
-218 41 0 
-248 49 0 
-217 22 23 24 25 26 27 33 0 
-78 85 0 
-362 173 0 
-317 22 23 24 25 26 27 30 0 
-38 -22 0 
-332 55 0 
-220 22 23 24 25 26 27 32 0 
-222 43 0 
-150 173 0 
-306 49 0 
-170 54 0 
-263 47 0 
-400 41 0 
-184 183 230 0 
-404 22 23 24 25 26 27 33 0 
-316 118 0 
-372 22 23 24 25 26 27 32 0 
-124 -6 119 0 
-164 -6 2 0 
-381 173 0 
-210 22 23 24 25 26 27 32 0 
-95 94 126 146 163 0 
-276 49 0 
-313 22 23 24 25 26 27 29 0 
-106 118 0 
-229 157 0 
-168 -8 0 
-94 -62 95 0 
-370 41 0 
-2 175 0 
-103 -6 7 0 
-275 49 0 
-255 22 23 24 25 26 27 29 0 
-76 85 0 
-295 22 23 24 25 26 27 29 0 
-77 40 0 
-340 41 0 
-413 22 23 24 25 26 27 33 0 
-34 -26 0 
-245 49 0 
-129 41 0 
-389 41 0 
-404 139 0 
-329 55 0 
-294 49 0 
-409 22 23 24 25 26 27 33 0 
-167 54 0 
-260 47 0 
-383 56 0 
-205 22 23 24 25 26 27 34 0 
-359 41 0 
-164 -161 0 
-358 22 23 24 25 26 27 32 0 
-355 157 0 
-110 -4 0 
-357 22 23 24 25 26 27 32 0 
-443 47 0 
-264 49 0 
-93 85 0 
-183 -175 0 
-314 22 23 24 25 26 27 29 0 
-423 139 0 
-129 -124 0 
-367 41 0 
-75 40 0 
-355 52 0 
-48 49 50 51 0 
-256 22 23 24 25 26 27 29 0 
-482 173 0 
-402 56 0 
-341 22 23 24 25 26 27 32 0 
-366 22 23 24 25 26 27 32 0 
-232 21 22 23 24 25 26 27 0 
-207 22 23 24 25 26 27 32 0 
-74 118 0 
-421 42 0 
63 64 175 0 
-337 41 0 
-125 22 23 24 25 26 27 33 0 
-292 49 0 
-393 22 23 24 25 26 27 32 0 
-31 -26 0 
-126 41 0 
-386 41 0 
-100 85 110 147 180 181 187 0 
-72 58 0 
-291 49 0 
-39 -25 0 
-439 22 23 24 25 26 27 38 0 
-92 118 0 
-78 85 110 147 180 181 187 0 
-89 10 0 
-356 41 0 
-391 22 23 24 25 26 27 32 0 
-261 49 0 
-420 139 0 
-126 -124 0 
-17 7 0 
-162 -8 0 
-224 52 0 
-493 190 0 
-145 22 23 24 25 26 27 34 0 
-399 56 0 
-454 118 0 
-320 118 0 
-116 41 0 
-408 22 23 24 25 26 27 33 0 
-426 22 23 24 25 26 27 33 0 
-205 43 0 
-280 49 0 
-180 -85 0 
-84 22 23 24 25 26 27 32 0 
-340 22 23 24 25 26 27 32 0 
-384 22 23 24 25 26 27 37 0 
-28 -26 0 
-246 47 0 
-430 22 23 24 25 26 27 35 0 
-433 22 23 24 25 26 27 35 0 
-390 22 23 24 25 26 27 32 0 
-376 53 0 
-80 85 0 
-171 41 0 
-1 4 0 
-409 139 0 
-334 55 0 
-392 190 0 
-384 54 0 
-212 157 0 
-300 47 0 
-353 41 0 
-39 -22 0 
-258 49 0 
-141 41 0 
-436 22 23 24 25 26 27 38 0 
-155 -2 143 0 
-417 139 0 
-311 22 23 24 25 26 27 29 0 
-376 22 23 24 25 26 27 32 0 
-90 22 23 24 25 26 27 39 0 
-490 190 0 
-64 6 0 
-108 118 0 
-154 43 0 
-396 56 0 
-163 -6 0 
-319 47 0 
-73 42 0 
-277 49 0 
-135 85 110 147 180 181 187 0 
-184 63 64 0 
-329 22 23 24 25 26 27 37 0 
-79 118 0 
-117 47 0 
-29 -23 0 
-86 5 9 10 0 
-342 41 0 
-245 22 23 24 25 26 27 29 0 
-486 173 0 
-104 22 23 24 25 26 27 29 0 
-247 49 0 
-77 85 0 
-131 41 0 
-37 -22 0 
-406 139 0 
-407 22 23 24 25 26 27 33 0 
-221 43 0 
-471 157 0 
-210 52 0 
-433 43 0 
-400 22 23 24 25 26 27 32 0 
-13 5 9 10 0 
-312 40 0 
-235 22 23 24 25 26 27 29 0 
-404 42 0 
-126 95 0 
-61 6 0 
-142 43 0 
-105 118 0 
-131 -124 0 
-228 157 0 
-316 47 0 
-369 41 0 
-141 22 23 24 25 26 27 32 0 
-381 22 23 24 25 26 27 32 0 
-115 85 110 147 180 181 187 0 
-484 173 0 
-433 139 0 
-76 118 0 
-75 85 0 
-115 47 0 
-423 42 0 
-404 55 0 
-198 157 0 
-286 47 0 
-34 -27 0 
-15 -14 0 
-339 41 0 
-101 22 23 24 25 26 27 32 0 
-483 173 0 
-244 49 0 
-33 -26 0 
-243 22 23 24 25 26 27 29 0 
-128 41 0 
-207 52 0 
-92 22 23 24 25 26 27 30 0 
-397 190 0 
-99 41 0 
-193 107 0 
-442 41 0 
-129 53 0 
-161 -122 0 
-3 2 63 64 0 
-263 49 0 
-438 157 0 
-7 -6 123 0 
-422 139 0 
-104 47 0 
-171 22 23 24 25 26 27 32 0 
-128 -124 0 
-134 22 23 24 25 26 27 34 0 
-225 157 0 
-164 -8 0 
-226 52 0 
-435 58 0 
-359 53 0 
-94 95 0 
-481 173 0 
-401 56 0 
-456 118 0 
-107 -75 193 0 
-169 -137 -123 -103 -10 -6 7 65 0 
-211 22 23 24 25 26 27 32 0 
-73 118 0 
-246 22 23 24 25 26 27 29 0 
-154 -2 143 0 
-420 42 0 
-195 157 0 
-283 47 0 
-31 -27 0 
-336 41 0 
-154 85 147 0 
63 175 230 0 
-30 -26 0 
-68 85 110 147 180 181 187 0 
-74 47 0 
-27 -21 0 
-280 22 23 24 25 26 27 29 0 
-71 58 0 
-374 22 23 24 25 26 27 37 0 
-394 22 23 24 25 26 27 32 0 
-44 -6 45 0 
-204 52 0 
-352 22 23 24 25 26 27 32 0 
-154 22 23 24 25 26 27 34 0 
-97 40 0 
-91 118 0 
-394 190 0 
-214 157 0 
-302 47 0 
-355 41 0 
-371 173 0 
-260 49 0 
-367 22 23 24 25 26 27 32 0 
-159 173 0 
-114 22 23 24 25 26 27 35 0 
-419 139 0 
-334 22 23 24 25 26 27 32 0 
-326 40 0 
-125 -124 0 
-193 75 0 
-101 47 0 
-409 42 0 
-443 49 0 
-223 52 0 
-340 139 0 
-64 191 0 
-126 22 23 24 25 26 27 32 0 
-209 22 23 24 25 26 27 32 0 
-325 40 0 
-398 56 0 
-453 118 0 
-417 42 0 
-46 -44 0 
-82 85 110 147 180 181 187 0 
-360 22 23 24 25 26 27 37 0 
-155 43 0 
-8 103 0 
-24 -21 0 
-186 174 0 
-166 6 0 
-2 3 0 
-1 3 0 
-4 22 23 24 25 26 27 32 0 
-31 -24 0 
-250 47 0 
-44 6 0 
-183 184 0 
-391 190 0 
-138 -75 0 
-211 157 0 
-39 -23 0 
-299 47 0 
-201 22 23 24 25 26 27 33 0 
-283 22 23 24 25 26 27 29 0 
-314 40 0 
-77 22 23 24 25 26 27 29 0 
-317 118 0 
-406 42 0 
-179 49 0 
-187 -181 0 
-424 22 23 24 25 26 27 33 0 
-269 47 0 
-63 6 0 
-128 22 23 24 25 26 27 32 0 
-337 139 0 
-170 22 23 24 25 26 27 32 0 
-425 22 23 24 25 26 27 33 0 
-106 22 23 24 25 26 27 29 0 
-274 22 23 24 25 26 27 29 0 
-302 22 23 24 25 26 27 29 0 
-17 9 0 
-428 22 23 24 25 26 27 34 0 
-142 52 0 
-395 56 0 
-450 118 0 
-126 139 0 
64 175 183 0 
-387 173 0 
-152 157 0 
-134 85 110 147 180 181 187 0 
-29 -24 0 
-406 55 0 
-179 62 0 
-272 22 23 24 25 26 27 29 0 
-200 157 0 
-288 47 0 
-485 173 0 
-372 53 0 
-28 -24 0 
-246 49 0 
-405 139 0 
-117 22 23 24 25 26 27 29 0 
-365 22 23 24 25 26 27 32 0 
-364 22 23 24 25 26 27 32 0 
-208 157 0 
-296 47 0 
-209 52 0 
-216 22 23 24 25 26 27 32 0 
-149 144 0 
-300 49 0 
-376 173 0 
-182 6 0 
-131 53 0 
-266 47 0 
-136 22 23 24 25 26 27 34 0 
-143 4 129 142 146 154 155 194 0 
-392 22 23 24 25 26 27 32 0 
-227 157 0 
-315 47 0 
-176 85 110 147 180 181 187 0 
-146 -62 95 0 
-236 47 0 
-113 43 0 
-12 -6 5 0 
-81 40 0 
-75 118 0 
-114 47 0 
-244 22 23 24 25 26 27 29 0 
-422 42 0 
-337 22 23 24 25 26 27 32 0 
-197 157 0 
-210 41 0 
-285 47 0 
-33 -27 0 
-369 53 0 
-328 22 23 24 25 26 27 32 0 
-371 22 23 24 25 26 27 32 0 
-353 22 23 24 25 26 27 38 0 
-127 41 0 
-219 22 23 24 25 26 27 32 0 
-347 22 23 24 25 26 27 37 0 
-32 -27 0 
-307 22 23 24 25 26 27 29 0 
-206 52 0 
-50 41 0 
-255 47 0 
-392 41 0 
-181 -180 0 
-356 22 23 24 25 26 27 32 0 
-373 173 0 
-61 -59 -6 0 
-192 107 0 
-441 41 0 
-249 22 23 24 25 26 27 29 0 
-297 22 23 24 25 26 27 29 0 
-160 -122 0 
-64 -2 0 
-378 22 23 24 25 26 27 32 0 
-372 22 23 24 25 26 27 33 0 
-149 147 0 
-127 -124 0 
-167 22 23 24 25 26 27 32 0 
-434 58 0 
-342 139 0 
-250 22 23 24 25 26 27 29 0 
-146 157 0 
-69 40 0 
-233 47 0 
-455 118 0 
-419 42 0 
-207 41 0 
-194 157 0 
-282 47 0 
-30 -27 0 
-181 -85 0 
-350 139 0 
-431 22 23 24 25 26 27 35 0 
-155 52 0 
-359 22 23 24 25 26 27 32 0 
-96 22 23 24 25 26 27 29 0 
-124 119 0 
-371 54 0 
-73 47 0 
-174 -62 2 63 64 0 
-26 -21 0 
-34 -25 0 
-126 62 95 0 
-168 6 0 
-33 -24 0 
-159 54 0 
-252 47 0 
-96 40 0 
-177 42 0 
-133 190 0 
-393 190 0 
-213 157 0 
-226 41 0 
-301 47 0 
-7 -6 9 10 0 
-370 173 0 
-339 22 23 24 25 26 27 32 0 
-298 22 23 24 25 26 27 29 0 
-438 41 0 
2 63 64 0 
-146 147 0 
-100 47 0 
-141 85 0 
-196 41 0 
-271 47 0 
-350 22 23 24 25 26 27 32 0 
-339 139 0 
-63 191 0 
-233 22 23 24 25 26 27 29 0 
-79 85 110 147 180 181 187 0 
-452 118 0 
-324 40 0 
-129 173 0 
-195 41 0 
-142 22 23 24 25 26 27 34 0 
-113 85 0 
-236 22 23 24 25 26 27 29 0 
-279 47 0 
-378 41 0 
-7 -6 103 0 
-70 47 0 
-23 -21 0 
-78 43 0 
-283 49 0 
-31 -25 0 
-359 173 0 
-8 -5 0 
-30 -24 0 
-249 47 0 
-12 5 9 10 0 
-361 22 23 24 25 26 27 32 0 
-298 47 0 
-367 173 0 
-397 41 0 
-337 55 0 
-151 144 0 
-13 6 0 
-197 22 23 24 25 26 27 32 0 
-313 40 0 
-179 -178 0 
-226 22 23 24 25 26 27 32 0 
-405 42 0 
-461 139 0 
-267 22 23 24 25 26 27 29 0 
-186 45 0 
-268 47 0 
-150 144 0 
-336 139 0 
-396 22 23 24 25 26 27 32 0 
-112 40 0 
-321 118 0 
-141 52 0 
-317 47 0 
-125 139 0 
-386 173 0 
-281 49 0 
-16 5 9 10 0 
-111 118 0 
-238 47 0 
-83 40 0 
-375 41 0 
-405 55 0 
-28 -25 0 
-162 6 0 
-159 22 23 24 25 26 27 32 0 
-81 85 0 
-237 22 23 24 25 26 27 29 0 
-62 -49 -2 110 178 179 0 
-466 157 0 
-345 41 0 
-221 22 23 24 25 26 27 34 0 
-211 41 0 
-250 49 0 
-326 173 0 
-355 22 23 24 25 26 27 32 0 
-394 41 0 
-176 85 0 
-310 40 0 
-224 43 0 
-299 49 0 
-458 139 0 
-149 22 23 24 25 26 27 32 0 
-99 85 0 
-231 40 0 
-265 47 0 
-155 22 23 24 25 26 27 35 0 
-427 22 23 24 25 26 27 33 0 
-364 41 0 
-151 147 0 
-423 22 23 24 25 26 27 33 0 
-260 22 23 24 25 26 27 29 0 
-122 -8 0 
-130 22 23 24 25 26 27 32 0 
-269 49 0 
-98 85 0 
-372 42 0 
-428 139 0 
-235 47 0 
-146 85 147 0 
-171 173 0 
-163 -62 95 0 
-209 41 0 
-284 47 0 
-487 173 0 
-69 85 0 
-142 144 148 0 
-29 -22 0 
-228 22 23 24 25 26 27 34 0 
-10 -9 0 
-365 58 0 
-99 85 110 147 180 181 187 0 
-163 8 0 
-75 85 110 147 180 181 187 0 
-297 49 0 
-100 22 23 24 25 26 27 32 0 
-28 -22 0 
-36 -26 0 
-79 22 23 24 25 26 27 36 0 
-323 173 0 
-391 41 0 
-194 22 23 24 25 26 27 34 0 
-296 49 0 
-310 22 23 24 25 26 27 39 0 
-372 173 0 
-440 41 0 
-127 53 0 
-267 49 0 
-97 118 0 
-63 -2 0 
-309 22 23 24 25 26 27 29 0 
-239 22 23 24 25 26 27 29 0 
-361 41 0 
-266 49 0 
-149 41 0 
-163 -62 -8 95 0 
-425 139 0 
-67 85 0 
-145 157 0 
-68 40 0 
-232 47 0 
-69 85 110 147 180 181 187 0 
-131 173 0 
-331 41 0 
-435 22 23 24 25 26 27 38 0 
-475 173 0 
-7 -6 169 0 
-116 118 0 
-206 22 23 24 25 26 27 34 0 
-236 49 0 
-49 85 110 147 180 181 187 0 
-411 22 23 24 25 26 27 33 0 
-380 41 0 
-370 54 0 
-25 -21 0 
-285 49 0 
-33 -25 0 
-114 85 0 
175 183 230 0 
-80 22 23 24 25 26 27 29 0 
-444 139 0 
-247 22 23 24 25 26 27 29 0 
-310 22 23 24 25 26 27 29 0 
-204 22 23 24 25 26 27 34 0 
-251 47 0 
-176 42 0 
-62 2 63 64 0 
-255 49 0 
-369 173 0 
-94 118 0 
-8 123 0 
-161 -121 0 
-312 22 23 24 25 26 27 29 0 
-358 41 0 
-169 -137 -123 -103 -9 -6 7 65 0 
-405 22 23 24 25 26 27 37 0 
-4 -3 -2 1 0 
-91 22 23 24 25 26 27 29 0 
-259 22 23 24 25 26 27 29 0 
-214 22 23 24 25 26 27 32 0 
-128 173 0 
-88 5 9 10 0 
-328 41 0 
-69 22 23 24 25 26 27 31 0 
-113 118 0 
-146 62 95 0 
-233 49 0 
-46 -44 -6 0 
-377 41 0 
-432 22 23 24 25 26 27 35 0 
-358 54 0 
-83 22 23 24 25 26 27 29 0 
-7 -6 137 0 
-254 22 23 24 25 26 27 29 0 
-8 -6 0 
-166 -6 45 0 
2 184 0 
-282 49 0 
-30 -25 0 
-165 41 0 
-125 42 0 
-164 6 0 
-7 -6 -5 0 
-419 22 23 24 25 26 27 33 0 
-437 22 23 24 25 26 27 38 0 
-34 -23 0 
-468 157 0 
-347 41 0 
-144 4 127 130 142 146 149 150 151 0 
-64 -46 0 
-378 53 0 
-145 138 0 
-252 49 0 
-82 85 0 
-411 139 0 
-336 55 0 
-8 7 0 
-427 53 0 
-386 54 0 
-380 22 23 24 25 26 27 32 0 
-73 85 110 147 180 181 187 0 
-125 55 0 
-460 139 0 
-390 56 0 
-67 42 0 
-124 -8 0 
-160 -6 57 0 
-430 139 0 
-20 9 0 
-94 62 95 0 
-321 47 0 
-374 41 0 
-113 85 110 147 180 181 187 0 
-265 22 23 24 25 26 27 29 0 
-204 43 0 
-279 49 0 
-489 173 0 
-326 22 23 24 25 26 27 30 0 
-81 118 0 
6 8 0 
2 183 230 0 
-165 22 23 24 25 26 27 37 0 
-203 157 0 
-31 -23 0 
-344 41 0 
-429 22 23 24 25 26 27 35 0 
-178 -110 0 
-488 173 0 
-342 22 23 24 25 26 27 32 0 
-30 -22 0 
-395 22 23 24 25 26 27 32 0 
-87 5 9 10 0 
-249 49 0 
-38 -26 0 
-133 41 0 
-393 41 0 
-408 139 0 
-374 54 0 
-90 47 0 
-51 40 0 
-223 43 0 
-298 49 0 
-212 52 0 
-435 157 0 
-140 85 110 147 180 181 187 0 
-457 139 0 
-276 22 23 24 25 26 27 29 0 
-99 118 0 
-171 54 0 
-428 55 0 
-402 190 0 
-187 -180 0 
-203 22 23 24 25 26 27 34 0 
-363 41 0 
-121 -8 0 
-268 49 0 
-151 41 0 
-109 47 0 
-133 -124 0 
-234 47 0 
-4 144 148 0 
-364 53 0 
-74 22 23 24 25 26 27 33 0 
-238 49 0 
-68 85 0 
-367 47 0 
-78 118 0 
-425 42 0 
-184 64 183 0 
-349 22 23 24 25 26 27 32 0 
-146 95 0 
-140 -8 0 
-28 -23 0 
-187 -85 0 
-36 -27 0 
-341 41 0 
-35 -26 0 
-322 173 0 
-130 41 0 
-345 22 23 24 25 26 27 32 0 
-286 22 23 24 25 26 27 29 0 
-134 43 0 
-96 118 0 
-263 22 23 24 25 26 27 29 0 
-399 190 0 
-184 63 230 0 
-219 157 0 
-101 41 0 
-307 47 0 
-360 41 0 
-242 22 23 24 25 26 27 29 0 
-434 22 23 24 25 26 27 38 0 
-163 -122 0 
-265 49 0 
-104 85 110 147 180 181 187 0 
-370 22 23 24 25 26 27 32 0 
-108 22 23 24 25 26 27 32 0 
-424 139 0 
-67 118 0 
-106 47 0 
-130 -124 0 
-199 22 23 24 25 26 27 32 0 
-234 22 23 24 25 26 27 29 0 
-228 52 0 
-72 41 0 
-437 58 0 
-330 41 0 
-345 139 0 
-474 173 0 
-361 53 0 
-235 49 0 
-403 56 0 
-134 139 0 
-268 22 23 24 25 26 27 29 0 
-108 85 110 147 180 181 187 0 
-149 53 0 
-208 22 23 24 25 26 27 34 0 
-163 -110 0 
-284 49 0 
-198 52 0 
-60 -8 0 
-32 -26 0 
-20 5 9 10 0 
-142 -2 143 0 
-208 43 0 
-67 22 23 24 25 26 27 28 0 
-64 -6 230 0 
-217 157 0 
-380 53 0 
-36 -24 0 
-84 85 0 
-93 118 0 
-413 139 0 
-128 54 0 
-396 190 0 
-322 22 23 24 25 26 27 30 0 
-160 -121 0 
-216 157 0 
-304 47 0 
-217 52 0 
-66 49 67 68 69 70 71 72 73 74 75 76 77 78 79 80 81 82 83 0 
-110 -77 0 
-248 22 23 24 25 26 27 29 0 
-319 40 0 
-447 118 0 
-98 22 23 24 25 26 27 34 0 
-411 42 0 
-318 22 23 24 25 26 27 30 0 
-445 49 0 
-116 22 23 24 25 26 27 32 0 
-225 52 0 
-127 173 0 
-274 47 0 
-327 41 0 
-161 -110 0 
-117 40 0 
-149 22 23 24 25 26 27 37 0 
-112 118 0 
-400 56 0 
-323 47 0 
-206 43 0 
-130 144 148 0 
-34 -24 0 
-441 173 0 
-440 139 0 
-83 118 0 
-264 22 23 24 25 26 27 29 0 
-222 22 23 24 25 26 27 34 0 
-411 55 0 
-377 22 23 24 25 26 27 32 0 
-205 157 0 
-300 22 23 24 25 26 27 29 0 
-33 -23 0 
-293 47 0 
-182 -6 49 0 
-63 -46 0 
-217 42 0 
-251 49 0 
-146 144 148 0 
-410 139 0 
-92 47 0 
-177 22 23 24 25 26 27 33 0 
-134 85 0 
-110 175 0 
-214 52 0 
-332 22 23 24 25 26 27 32 0 
-415 22 23 24 25 26 27 37 0 
-331 139 0 
-459 139 0 
-316 40 0 
-389 56 0 
-310 118 0 
-196 22 23 24 25 26 27 32 0 
-408 42 0 
-215 22 23 24 25 26 27 32 0 
-177 56 0 
-231 118 0 
-146 43 0 
-115 40 0 
-19 9 0 
-152 85 0 
-320 47 0 
-409 55 0 
-120 121 122 0 
-154 157 0 
-241 47 0 
-129 -110 0 
-80 118 0 
-353 22 23 24 25 26 27 32 0 
-427 42 0 
-408 55 0 
-97 22 23 24 25 26 27 30 0 
-202 157 0 
-131 144 148 0 
-30 -23 0 
-290 47 0 
-38 -27 0 
-343 41 0 
-151 85 147 0 
-37 -26 0 
-132 41 0 
-407 139 0 
-80 85 110 147 180 181 187 0 
-211 52 0 
-434 157 0 
-328 139 0 
-104 40 0 
-401 190 0 
-299 22 23 24 25 26 27 29 0 
-221 157 0 
-406 22 23 24 25 26 27 33 0 
-378 173 0 
-358 22 23 24 25 26 27 37 0 
-156 85 110 147 180 181 187 0 
-427 173 0 
-426 139 0 
-418 22 23 24 25 26 27 33 0 
-154 147 0 
-262 22 23 24 25 26 27 29 0 
-132 -124 0 
-108 47 0 
-16 9 0 
-439 58 0 
-347 139 0 
-102 22 23 24 25 26 27 29 0 
-363 53 0 
-277 22 23 24 25 26 27 29 0 
-152 52 0 
-172 -6 0 
-75 22 23 24 25 26 27 28 0 
-136 139 0 
-77 118 0 
-79 47 0 
-424 42 0 
-151 53 0 
-199 157 0 
-212 41 0 
-287 47 0 
-200 52 0 
-35 -27 0 
-99 22 23 24 25 26 27 32 0 
-78 47 0 
-435 41 0 
-44 45 0 
-38 -24 0 
-208 52 0 
-257 47 0 
-398 190 0 
-218 157 0 
-100 41 0 
-306 47 0 
-375 173 0 
-149 85 147 0 
-130 53 0 
-162 -122 0 
-105 47 0 
-398 22 23 24 25 26 27 32 0 
-152 42 0 
-413 42 0 
-227 52 0 
-71 41 0 
-436 58 0 
-276 47 0 
-344 139 0 
-93 57 0 
-234 49 0 
-76 47 0 
-162 -110 0 
-197 52 0 
-136 85 110 147 180 181 187 0 
-122 6 0 
-383 41 0 
-59 -8 0 
-413 55 0 
-36 -25 0 
-364 173 0 
-35 -24 0 
-254 47 0 
-86 10 0 
-284 22 23 24 25 26 27 29 0 
-412 22 23 24 25 26 27 33 0 
-395 190 0 
-136 85 0 
-215 157 0 
-303 47 0 
-133 22 23 24 25 26 27 32 0 
-368 22 23 24 25 26 27 32 0 
-81 22 23 24 25 26 27 29 0 
-318 40 0 
-93 47 0 
-410 42 0 
-343 22 23 24 25 26 27 32 0 
-198 41 0 
-273 47 0 
-146 22 23 24 25 26 27 34 0 
-341 139 0 
-160 -110 0 
-423 22 23 24 25 26 27 37 0 
-146 52 0 
-150 22 23 24 25 26 27 32 0 
-322 47 0 
-384 22 23 24 25 26 27 32 0 
-7 169 0 
-282 22 23 24 25 26 27 29 0 
-113 22 23 24 25 26 27 35 0 
-286 49 0 
-115 85 0 
-156 157 0 
-194 52 0 
-243 47 0 
-304 22 23 24 25 26 27 29 0 
-178 -8 0 
-186 -2 174 0 
-167 147 0 
-410 55 0 
-223 22 23 24 25 26 27 34 0 
-292 47 0 
-361 173 0 
-17 5 9 10 0 
-10 -5 0 
-175 2 0 
-331 55 0 
-290 22 23 24 25 26 27 29 0 
-32 -24 0 
-373 58 0 
-149 173 0 
-216 41 0 
-91 47 0 
-213 52 0 
-330 139 0 
-399 41 0 
-324 22 23 24 25 26 27 30 0 
-388 56 0 
-315 40 0 
-6 7 65 0 
-98 43 0 
-304 49 0 
-148 -144 0 
-178 -6 2 0 
-380 173 0 
-407 42 0 
-463 139 0 
-104 85 0 
-155 85 147 0 
-176 56 0 
-270 47 0 
-145 43 0 
-18 9 0 
-8 137 0 
-274 49 0 
-442 56 0 
-329 22 23 24 25 26 27 32 0 
-153 157 0 
-240 47 0 
-44 -8 0 
2 63 230 0 
-426 42 0 
-407 55 0 
-214 41 0 
-201 157 0 
-84 41 0 
-289 47 0 
-37 -27 0 
-74 85 0 
-358 173 0 
-34 -22 0 
-279 22 23 24 25 26 27 29 0 
-241 22 23 24 25 26 27 29 0 
-127 144 148 0 
-328 55 0 
-2 191 0 
-302 49 0 
-259 47 0 
-333 22 23 24 25 26 27 32 0 
-396 41 0 
-110 -85 0 
-312 118 0 
-377 173 0 
-163 -162 0 
-422 22 23 24 25 26 27 33 0 
-132 53 0 
-164 -122 0 
-101 85 0 
-233 40 0 
-152 22 23 24 25 26 27 33 0 
-135 22 23 24 25 26 27 33 0 
-102 40 0 
-320 22 23 24 25 26 27 30 0 
-165 173 0 
-366 41 0 
-230 -175 0 
-171 22 23 24 25 26 27 37 0 
-72 85 0 
-237 47 0 
-71 85 110 147 180 181 187 0 
-231 21 22 23 24 25 26 27 0 
-114 43 0 
-12 -8 0 
-241 49 0 
-428 43 0 
-31 -22 0 
-124 6 0 
-385 41 0 
-230 64 0 
-375 54 0 
-77 47 0 
-290 49 0 
-11 -8 0 
-38 -25 0 
-94 22 23 24 25 26 27 30 0 
-316 22 23 24 25 26 27 30 0 
-434 41 0 
-37 -24 0 
-256 47 0 
-19 5 9 10 0 
-325 173 0 
-88 10 0 
-257 22 23 24 25 26 27 29 0 
-305 47 0 
-374 173 0 
-140 157 0 
-161 -8 0 
-261 22 23 24 25 26 27 29 0 
-107 -67 192 0 
-343 139 0 
-363 22 23 24 25 26 27 32 0 
-271 22 23 24 25 26 27 29 0 
-333 41 0 
-199 41 0 
-75 47 0 
-288 49 0 
-117 118 0 
-70 85 110 147 180 181 187 0 
-121 6 0 
-382 41 0 
-374 22 23 24 25 26 27 32 0 
-82 43 0 
-287 49 0 
-35 -25 0 
-64 174 0 
-348 22 23 24 25 26 27 32 0 
-363 173 0 
-170 41 0 
-305 22 23 24 25 26 27 29 0 
-354 22 23 24 25 26 27 32 0 
-6 -2 62 110 178 179 0 
-253 47 0 
-151 173 0 
-473 157 0 
-352 41 0 
-112 22 23 24 25 26 27 29 0 
-257 49 0 
-140 6 0 
-401 41 0 
-416 139 0 
-13 -6 5 0 
-163 -121 0 
-317 40 0 
-129 -2 143 0 
-178 -62 -6 0 
-153 22 23 24 25 26 27 33 0 
-465 139 0 
-197 41 0 
-272 47 0 
-323 22 23 24 25 26 27 30 0 
-170 22 23 24 25 26 27 37 0 
-172 -8 107 0 
-360 22 23 24 25 26 27 32 0 
-438 22 23 24 25 26 27 38 0 
-145 52 0 
-353 58 0 
-130 173 0 
-270 22 23 24 25 26 27 29 0 
-416 22 23 24 25 26 27 33 0 
-115 118 0 
-242 47 0 
-379 41 0 
-32 -25 0 
-360 173 0 
-167 41 0 
-9 -5 0 
-330 55 0 
-131 22 23 24 25 26 27 32 0 
-414 22 23 24 25 26 27 33 0 
-194 -2 143 0 
-36 -23 0 
-161 57 0 
-470 157 0 
-215 41 0 
-432 43 0 
-35 -22 0 
-254 49 0 
-398 41 0 
-123 -6 7 0 
-10 7 0 
-228 43 0 
-303 49 0 
-60 6 0 
-462 139 0 
-104 118 0 
-392 56 0 
-368 41 0 
-122 -121 0 
-273 49 0 
-50 22 23 24 25 26 27 32 0 
-11 -6 5 0 
-432 139 0 
-239 47 0 
-338 41 0 
-213 41 0 
-224 22 23 24 25 26 27 34 0 
-430 43 0 
-243 49 0 
-337 22 23 24 25 26 27 37 0 
-73 85 0 
-33 -22 0 
-4 41 0 
-377 54 0 
-328 22 23 24 25 26 27 37 0 
-371 22 23 24 25 26 27 37 0 
-13 -8 0 
-467 157 0 
-346 41 0 
-180 -110 0 
-429 43 0 
-301 49 0 
-67 85 110 147 180 181 187 0 
-32 -22 0 
-165 54 0 
-395 41 0 
-311 118 0 
-195 22 23 24 25 26 27 38 0 
-225 43 0 
-437 157 0 
-198 22 23 24 25 26 27 32 0 
-271 49 0 
-101 118 0 
-100 85 0 
-232 40 0 
-182 -6 63 0 
-64 3 0 
-224 157 0 
-312 47 0 
-365 41 0 
-321 22 23 24 25 26 27 30 0 
-288 22 23 24 25 26 27 29 0 
-167 22 23 24 25 26 27 37 0 
-270 49 0 
-480 173 0 
-114 85 110 147 180 181 187 0 
-141 85 110 147 180 181 187 0 
-429 139 0 
-72 118 0 
-71 85 0 
-335 41 0 
-65 -7 -6 0 
-192 67 74 0 
-479 173 0 
-366 53 0 
175 184 0 
-240 49 0 
-29 -26 0 
-70 85 0 
-347 22 23 24 25 26 27 32 0 
-331 22 23 24 25 26 27 32 0 
-384 41 0 
-78 22 23 24 25 26 27 35 0 
-383 22 23 24 25 26 27 32 0 
-148 131 0 
-289 49 0 
-203 52 0 
-37 -25 0 
-65 -8 0 
-324 173 0 
-72 22 23 24 25 26 27 32 0 
-222 157 0 
-385 53 0 
-259 49 0 
-418 139 0 
-98 118 0 
-68 21 22 23 24 25 26 27 0 
-160 -8 0 
-222 52 0 
-110 2 0 
-145 75 138 0 
-362 41 0 
-129 22 23 24 25 26 27 32 0 
-163 -160 0 
-289 22 23 24 25 26 27 29 0 
-477 173 0 
-397 56 0 
-150 41 0 
-69 118 0 
-140 -6 85 0 
-416 42 0 
-132 173 0 
-70 22 23 24 25 26 27 33 0 
-332 41 0 
-237 49 0 
-182 -6 184 0 
-63 -6 183 0 
-381 41 0 
-98 85 110 147 180 181 187 0 
-82 22 23 24 25 26 27 34 0 
-63 174 0 
-319 22 23 24 25 26 27 30 0 
-390 190 0 
-210 157 0 
-38 -23 0 
-472 157 0 
-336 22 23 24 25 26 27 32 0 
-351 41 0 
-172 8 0 
-167 85 147 0 
-382 53 0 
-161 -160 0 
-256 49 0 
-230 184 0 
-140 41 0 
-415 139 0 
-97 47 0 
-382 22 23 24 25 26 27 32 0 
-162 -121 0 
-230 -183 0 
-305 49 0 
-219 52 0 
-401 22 23 24 25 26 27 32 0 
-464 139 0 
-321 40 0 
-449 118 0 
-394 56 0 
-405 22 23 24 25 26 27 33 0 
-444 55 0 
-6 168 0 
-420 22 23 24 25 26 27 33 0 
-326 47 0 
-360 54 0 
-200 43 0 
-64 -63 0 
-329 41 0 
-115 22 23 24 25 26 27 29 0 
-114 118 0 
-116 47 0 
-70 42 0 
-325 47 0 
-159 22 23 24 25 26 27 37 0 
-410 22 23 24 25 26 27 33 0 
-207 157 0 
-35 -23 0 
-160 57 0 
-295 47 0 
-469 157 0 
-275 22 23 24 25 26 27 29 0 
-348 41 0 
-431 43 0 
-379 53 0 
-253 49 0 
-143 2 0 
-412 139 0 
-94 47 0 
-227 43 0 
-216 52 0 
-439 157 0 
-59 6 0 
-333 139 0 
-164 -162 0 
-109 40 0 
-153 85 110 147 180 181 187 0 
-71 22 23 24 25 26 27 32 0 
-432 55 0 
-391 56 0 
-446 118 0 
-80 40 0 
-226 157 0 
-108 41 0 
-314 47 0 
-383 173 0 
-146 -2 143 0 
-93 85 110 147 180 181 187 0 
-379 22 23 24 25 26 27 32 0 
-272 49 0 
-386 22 23 24 25 26 27 32 0 
-431 139 0 
-113 47 0 
-325 22 23 24 25 26 27 30 0 
-176 22 23 24 25 26 27 33 0 
-196 157 0 
-352 139 0 
-101 57 0 
-368 53 0 
-242 49 0 
-183 63 0 
-101 85 110 147 180 181 187 0 
-82 118 0 
-204 157 0 
-32 -23 0 
-205 52 0 
-179 -110 0 
-158 2 63 64 0 
-39 -26 0 
-387 22 23 24 25 26 27 32 0 
-152 85 110 147 180 181 187 0 
-430 55 0 
-252 22 23 24 25 26 27 29 0 
-178 6 0 
-296 22 23 24 25 26 27 29 0 
-436 157 0 
-262 47 0 
-4 53 0 
-106 40 0 
-100 118 0 
-385 22 23 24 25 26 27 32 0 
-429 55 0 
-403 190 0 
-357 157 0 
-63 3 0 
-223 157 0 
-105 41 0 
-311 47 0 
-293 22 23 24 25 26 27 29 0 
-213 22 23 24 25 26 27 32 0 
-362 22 23 24 25 26 27 32 0 
-194 43 0 
-308 22 23 24 25 26 27 29 0 
-150 144 148 0 
-71 118 0 
-357 52 0 
-418 42 0 
-441 58 0 
-281 47 0 
-29 -27 0 
-334 41 0 
-349 139 0 
-478 173 0 
-239 49 0 
-154 52 0 
-70 118 0 
-81 85 110 147 180 181 187 0 
-81 47 0 
-158 -62 0 
-28 -27 0 
-397 22 23 24 25 26 27 32 0 
-89 5 9 10 0 
-76 85 110 147 180 181 187 0 
-202 52 0 
-373 22 23 24 25 26 27 32 0 
-142 144 0 
-136 43 0 
-64 -8 0 
-266 22 23 24 25 26 27 29 0 
-285 22 23 24 25 26 27 29 0 
-437 41 0 
-94 40 0 
-77 2 62 63 64 0 
-163 -161 0 
-99 47 0 
-400 190 0 
-354 157 0 
-164 -121 0 
-220 157 0 
-308 47 0 
-221 52 0 
-162 -160 0 
-287 22 23 24 25 26 27 29 0 
-338 139 0 
-142 157 0 
-476 173 0 
-323 40 0 
-98 47 0 
-451 118 0 
-335 22 23 24 25 26 27 32 0 
-68 118 0 
-354 52 0 
-415 42 0 
-278 22 23 24 25 26 27 29 0 
-438 58 0 
-278 47 0 
-346 139 0 
-182 -6 183 0 
-151 144 148 0 
-346 22 23 24 25 26 27 32 0 
-129 85 147 0 
-362 53 0 
-69 47 0 
-22 -21 0 
-135 139 0 
-196 58 0 
-150 53 0 
-126 -62 95 0 
-166 45 0 
-199 52 0 
-248 47 0 
-147 -85 0 
-369 22 23 24 25 26 27 32 0 
-92 40 0 
-61 -8 0 
-389 190 0 
-195 58 0 
-209 157 0 
-37 -23 0 
-375 22 23 24 25 26 27 33 0 
-297 47 0 
-124 -100 0 
-366 173 0 
-381 53 0 
-403 22 23 24 25 26 27 32 0 
-177 190 0 
-111 22 23 24 25 26 27 29 0 
-12 6 0 
-414 139 0 
-306 22 23 24 25 26 27 29 0 
-96 47 0 
-218 52 0 
-267 47 0 
-140 22 23 24 25 26 27 38 0 
-335 139 0 
-11 6 0 
-133 56 0 
-393 56 0 
-448 118 0 
-320 40 0 
-492 190 0 
-315 22 23 24 25 26 27 30 0 
-385 173 0 
-67 47 0 
-412 42 0 
-275 47 0 
-161 -6 57 0 
-421 22 23 24 25 26 27 33 0 
-156 85 0 
-324 47 0 
-161 6 0 
-245 47 0 
-240 22 23 24 25 26 27 29 0 
-169 7 0 
-105 22 23 24 25 26 27 32 0 
-412 55 0 
-151 22 23 24 25 26 27 32 0 
-149 144 148 0 
-219 41 0 
-206 157 0 
-330 22 23 24 25 26 27 32 0 
-294 47 0 
-181 -110 0 
-333 55 0 
-399 22 23 24 25 26 27 32 0 
-84 85 110 147 180 181 187 0 
-253 22 23 24 25 26 27 29 0 
-307 49 0 
-164 -163 0 
-135 85 0 
-415 22 23 24 25 26 27 33 0 
-215 52 0 
-264 47 0 
-146 144 0 
-332 139 0 
-344 22 23 24 25 26 27 32 0 
-431 55 0 
-313 47 0 
-382 173 0 
-232 118 0 
-170 173 0 
-79 40 0 
-371 41 0 
-112 47 0 
-153 85 0 
-351 139 0 
-159 41 0 
-172 107 0 
-121 -110 0 
-155 157 0 
-165 22 23 24 25 26 27 32 0 
-156 52 0 
-83 47 0 
-77 85 110 147 180 181 187 0 
-64 -6 184 0 
-291 47 0 
-212 22 23 24 25 26 27 32 0 
-39 -27 0 
-59 -6 60 0 
-36 -22 0 
-90 42 0 
-390 41 0 
-225 22 23 24 25 26 27 34 0 
-82 47 0 
-174 2 63 64 0 
-295 49 0 
-439 41 0 
-327 22 23 24 25 26 27 32 0 
-261 47 0 
-329 139 0 
-356 157 0 
-310 47 0 
-379 173 0 
-164 -160 0 
-109 42 0 
-93 22 23 24 25 26 27 29 0 
-388 22 23 24 25 26 27 32 0 
-231 47 0 
-166 -8 0 
-167 173 0 
-76 40 0 
-155 147 0 
-370 22 23 24 25 26 27 37 0 
-356 52 0 
-185 63 64 0 
-156 42 0 
-280 47 0 
-348 139 0 
-227 22 23 24 25 26 27 34 0 
-109 22 23 24 25 26 27 29 0 
-127 22 23 24 25 26 27 32 0 
-153 52 0 
-238 22 23 24 25 26 27 29 0 
-291 22 23 24 25 26 27 29 0 
-351 22 23 24 25 26 27 32 0 
-80 47 0 
-218 22 23 24 25 26 27 32 0 
-293 49 0 
-201 52 0 
-1 2 0 
-389 22 23 24 25 26 27 32 0 
-63 -8 0 
-417 22 23 24 25 26 27 33 0 
-72 85 110 147 180 181 187 0 
-368 173 0 
-135 42 0 
-436 41 0 
-303 22 23 24 25 26 27 29 0 
-39 -24 0 
-93 40 0 
-258 47 0 
-357 41 0 
-162 -161 0 
-402 22 23 24 25 26 27 32 0 
-353 157 0 
-51 22 23 24 25 26 27 29 0 
-262 49 0 
-421 139 0 
-141 157 0 
-322 40 0 
-258 22 23 24 25 26 27 29 0 
-153 42 0 
-281 22 23 24 25 26 27 29 0 
-135 55 0 
-414 42 0 
-338 22 23 24 25 26 27 32 0 
-4 173 0 
-202 41 0 
-277 47 0 
-164 -110 0 
-201 42 0 
-68 47 0 
-29 -25 0 
-185 67 0 
-247 47 0 
-182 -8 0 
-91 40 0 
-375 22 23 24 25 26 27 32 0 
-76 21 22 23 24 25 26 27 0 
-414 55 0 
-388 190 0 
-377 22 23 24 25 26 27 37 0 
-4 -2 143 0 
-365 173 0 
-189 -188 0 
-74 85 110 147 180 181 187 0 
-179 2 0 
-73 22 23 24 25 26 27 39 0 
-90 118 0 
-335 55 0 
-176 190 0 
-87 10 0 
-354 41 0 
-220 41 0 
-273 22 23 24 25 26 27 29 0 
-200 22 23 24 25 26 27 34 0 
-442 190 0 
-334 139 0 
-403 41 0 
-156 22 23 24 25 26 27 33 0 
-319 118 0 
-140 52 0 
-18 5 9 10 0 
-308 49 0 
-491 190 0 
-65 6 0 
-384 173 0 
-269 22 23 24 25 26 27 29 0 
-109 118 0 
-108 85 0 
2 64 183 0 
-132 22 23 24 25 26 27 32 0 
-74 42 0 
-373 41 0 
-251 22 23 24 25 26 27 29 0 
-11 5 9 10 0 
-203 43 0 
-278 49 0 
-191 2 63 64 0 
-63 -6 184 0 
-160 6 0 
-79 85 0 
-202 22 23 24 25 26 27 32 0 
-244 47 0 
-294 22 23 24 25 26 27 29 0 
